p cnf 210 320
5 28 41 51 52 0
5 28 41 51 -52 0
5 28 41 -51 52 0
5 28 41 -51 -52 0
5 -28 41 53 54 0
5 -28 41 53 -54 0
5 -28 41 -53 54 0
5 -28 41 -53 -54 0
10 30 -41 55 56 0
10 30 -41 55 -56 0
10 30 -41 -55 56 0
10 30 -41 -55 -56 0
5 -10 -41 57 58 0
5 -10 -41 57 -58 0
5 -10 -41 -57 58 0
5 -10 -41 -57 -58 0
-5 25 30 59 60 0
-5 25 30 59 -60 0
-5 25 30 -59 60 0
-5 25 30 -59 -60 0
-5 -25 30 61 62 0
-5 -25 30 61 -62 0
-5 -25 30 -61 62 0
-5 -25 30 -61 -62 0
11 -30 -33 63 64 0
11 -30 -33 63 -64 0
11 -30 -33 -63 64 0
11 -30 -33 -63 -64 0
-11 -30 -33 65 66 0
-11 -30 -33 65 -66 0
-11 -30 -33 -65 66 0
-11 -30 -33 -65 -66 0
7 -30 33 67 68 0
7 -30 33 67 -68 0
7 -30 33 -67 68 0
7 -30 33 -67 -68 0
-7 14 33 69 70 0
-7 14 33 69 -70 0
-7 14 33 -69 70 0
-7 14 33 -69 -70 0
-4 -7 -14 71 72 0
-4 -7 -14 71 -72 0
-4 -7 -14 -71 72 0
-4 -7 -14 -71 -72 0
4 -14 -29 73 74 0
4 -14 -29 73 -74 0
4 -14 -29 -73 74 0
4 -14 -29 -73 -74 0
-1 -14 32 75 76 0
-1 -14 32 75 -76 0
-1 -14 32 -75 76 0
-1 -14 32 -75 -76 0
-1 4 -32 77 78 0
-1 4 -32 77 -78 0
-1 4 -32 -77 78 0
-1 4 -32 -77 -78 0
1 24 29 79 80 0
1 24 29 79 -80 0
1 24 29 -79 80 0
1 24 29 -79 -80 0
1 -24 -34 81 82 0
1 -24 -34 81 -82 0
1 -24 -34 -81 82 0
1 -24 -34 -81 -82 0
-6 -24 34 83 84 0
-6 -24 34 83 -84 0
-6 -24 34 -83 84 0
-6 -24 34 -83 -84 0
6 -24 38 85 86 0
6 -24 38 85 -86 0
6 -24 38 -85 86 0
6 -24 38 -85 -86 0
6 -32 -38 87 88 0
6 -32 -38 87 -88 0
6 -32 -38 -87 88 0
6 -32 -38 -87 -88 0
32 44 48 89 90 0
32 44 48 89 -90 0
32 44 48 -89 90 0
32 44 48 -89 -90 0
-38 -44 48 91 92 0
-38 -44 48 91 -92 0
-38 -44 48 -91 92 0
-38 -44 48 -91 -92 0
22 29 -48 93 94 0
22 29 -48 93 -94 0
22 29 -48 -93 94 0
22 29 -48 -93 -94 0
22 -29 32 95 96 0
22 -29 32 95 -96 0
22 -29 32 -95 96 0
22 -29 32 -95 -96 0
-22 -25 -48 97 98 0
-22 -25 -48 97 -98 0
-22 -25 -48 -97 98 0
-22 -25 -48 -97 -98 0
-22 25 40 99 100 0
-22 25 40 99 -100 0
-22 25 40 -99 100 0
-22 25 40 -99 -100 0
18 -22 -40 101 102 0
18 -22 -40 101 -102 0
18 -22 -40 -101 102 0
18 -22 -40 -101 -102 0
-18 20 -40 103 104 0
-18 20 -40 103 -104 0
-18 20 -40 -103 104 0
-18 20 -40 -103 -104 0
-18 28 -40 105 106 0
-18 28 -40 105 -106 0
-18 28 -40 -105 106 0
-18 28 -40 -105 -106 0
-18 -28 39 107 108 0
-18 -28 39 107 -108 0
-18 -28 39 -107 108 0
-18 -28 39 -107 -108 0
-28 35 -39 109 110 0
-28 35 -39 109 -110 0
-28 35 -39 -109 110 0
-28 35 -39 -109 -110 0
-35 -39 43 111 112 0
-35 -39 43 111 -112 0
-35 -39 43 -111 112 0
-35 -39 43 -111 -112 0
-35 -43 -50 113 114 0
-35 -43 -50 113 -114 0
-35 -43 -50 -113 114 0
-35 -43 -50 -113 -114 0
-43 -45 50 115 116 0
-43 -45 50 115 -116 0
-43 -45 50 -115 116 0
-43 -45 50 -115 -116 0
31 45 50 117 118 0
31 45 50 117 -118 0
31 45 50 -117 118 0
31 45 50 -117 -118 0
-31 -44 45 119 120 0
-31 -44 45 119 -120 0
-31 -44 45 -119 120 0
-31 -44 45 -119 -120 0
-15 44 49 121 122 0
-15 44 49 121 -122 0
-15 44 49 -121 122 0
-15 44 49 -121 -122 0
-15 -31 -49 123 124 0
-15 -31 -49 123 -124 0
-15 -31 -49 -123 124 0
-15 -31 -49 -123 -124 0
15 -31 36 125 126 0
15 -31 36 125 -126 0
15 -31 36 -125 126 0
15 -31 36 -125 -126 0
15 23 -36 127 128 0
15 23 -36 127 -128 0
15 23 -36 -127 128 0
15 23 -36 -127 -128 0
-23 -36 46 129 130 0
-23 -36 46 129 -130 0
-23 -36 46 -129 130 0
-23 -36 46 -129 -130 0
20 27 -46 131 132 0
20 27 -46 131 -132 0
20 27 -46 -131 132 0
20 27 -46 -131 -132 0
-20 -23 27 133 134 0
-20 -23 27 133 -134 0
-20 -23 27 -133 134 0
-20 -23 27 -133 -134 0
-16 -27 -46 135 136 0
-16 -27 -46 135 -136 0
-16 -27 -46 -135 136 0
-16 -27 -46 -135 -136 0
16 26 -27 137 138 0
16 26 -27 137 -138 0
16 26 -27 -137 138 0
16 26 -27 -137 -138 0
16 17 -26 139 140 0
16 17 -26 139 -140 0
16 17 -26 -139 140 0
16 17 -26 -139 -140 0
2 13 -17 141 142 0
2 13 -17 141 -142 0
2 13 -17 -141 142 0
2 13 -17 -141 -142 0
2 -13 -26 143 144 0
2 -13 -26 143 -144 0
2 -13 -26 -143 144 0
2 -13 -26 -143 -144 0
-5 -17 -26 145 146 0
-5 -17 -26 145 -146 0
-5 -17 -26 -145 146 0
-5 -17 -26 -145 -146 0
-2 -17 42 147 148 0
-2 -17 42 147 -148 0
-2 -17 42 -147 148 0
-2 -17 42 -147 -148 0
-2 12 -13 149 150 0
-2 12 -13 149 -150 0
-2 12 -13 -149 150 0
-2 12 -13 -149 -150 0
-2 -12 -42 151 152 0
-2 -12 -42 151 -152 0
-2 -12 -42 -151 152 0
-2 -12 -42 -151 -152 0
8 13 -42 153 154 0
8 13 -42 153 -154 0
8 13 -42 -153 154 0
8 13 -42 -153 -154 0
-8 -10 13 155 156 0
-8 -10 13 155 -156 0
-8 -10 13 -155 156 0
-8 -10 13 -155 -156 0
3 -8 10 157 158 0
3 -8 10 157 -158 0
3 -8 10 -157 158 0
3 -8 10 -157 -158 0
-3 10 -37 159 160 0
-3 10 -37 159 -160 0
-3 10 -37 -159 160 0
-3 10 -37 -159 -160 0
-3 10 -47 161 162 0
-3 10 -47 161 -162 0
-3 10 -47 -161 162 0
-3 10 -47 -161 -162 0
10 19 47 163 164 0
10 19 47 163 -164 0
10 19 47 -163 164 0
10 19 47 -163 -164 0
-12 -19 47 165 166 0
-12 -19 47 165 -166 0
-12 -19 47 -165 166 0
-12 -19 47 -165 -166 0
12 -19 21 167 168 0
12 -19 21 167 -168 0
12 -19 21 -167 168 0
12 -19 21 -167 -168 0
9 -19 -21 169 170 0
9 -19 -21 169 -170 0
9 -19 -21 -169 170 0
9 -19 -21 -169 -170 0
-9 -11 -21 171 172 0
-9 -11 -21 171 -172 0
-9 -11 -21 -171 172 0
-9 -11 -21 -171 -172 0
-9 11 -49 173 174 0
-9 11 -49 173 -174 0
-9 11 -49 -173 174 0
-9 11 -49 -173 -174 0
11 41 49 175 176 0
11 41 49 175 -176 0
11 41 49 -175 176 0
11 41 49 -175 -176 0
19 -32 37 177 178 0
19 -32 37 177 -178 0
19 -32 37 -177 178 0
19 -32 37 -177 -178 0
-1 39 -50 179 180 0
-1 39 -50 179 -180 0
-1 39 -50 -179 180 0
-1 39 -50 -179 -180 0
8 17 40 181 182 0
8 17 40 181 -182 0
8 17 40 -181 182 0
8 17 40 -181 -182 0
38 43 49 183 184 0
38 43 49 183 -184 0
38 43 49 -183 184 0
38 43 49 -183 -184 0
23 42 -47 185 186 0
23 42 -47 185 -186 0
23 42 -47 -185 186 0
23 42 -47 -185 -186 0
-13 -29 37 187 188 0
-13 -29 37 187 -188 0
-13 -29 37 -187 188 0
-13 -29 37 -187 -188 0
-34 37 -47 189 190 0
-34 37 -47 189 -190 0
-34 37 -47 -189 190 0
-34 37 -47 -189 -190 0
-33 -37 50 191 192 0
-33 -37 50 191 -192 0
-33 -37 50 -191 192 0
-33 -37 50 -191 -192 0
-6 14 34 193 194 0
-6 14 34 193 -194 0
-6 14 34 -193 194 0
-6 14 34 -193 -194 0
9 -20 -50 195 196 0
9 -20 -50 195 -196 0
9 -20 -50 -195 196 0
9 -20 -50 -195 -196 0
35 36 38 197 198 0
35 36 38 197 -198 0
35 36 38 -197 198 0
35 36 38 -197 -198 0
3 31 46 199 200 0
3 31 46 199 -200 0
3 31 46 -199 200 0
3 31 46 -199 -200 0
7 -16 21 201 202 0
7 -16 21 201 -202 0
7 -16 21 -201 202 0
7 -16 21 -201 -202 0
-6 17 26 203 204 0
-6 17 26 203 -204 0
-6 17 26 -203 204 0
-6 17 26 -203 -204 0
23 24 46 205 206 0
23 24 46 205 -206 0
23 24 46 -205 206 0
23 24 46 -205 -206 0
18 24 -45 207 208 0
18 24 -45 207 -208 0
18 24 -45 -207 208 0
18 24 -45 -207 -208 0
-4 -6 7 209 210 0
-4 -6 7 209 -210 0
-4 -6 7 -209 210 0
-4 -6 7 -209 -210 0
